DIMENSION: 100
42
55
64
20
65
80
77
30
68
35
2
23
21
89
41
59
3
73
69
60
4
93
49
18
29
37
51
16
63
44
66
48
84
11
52
96
87
97
81
45
33
100
74
57
36
14
10
92
99
19
7
82
78
9
26
61
32
24
46
12
40
53
1
85
27
15
13
79
67
31
47
6
54
75
22
8
17
25
90
34
58
98
88
39
28
38
71
56
5
43
86
62
83
72
50
95
94
91
70
